NAME : City Data
COMMENT : locations
COMMENT : Derived frm question
TYPE : TSP
DIMENSION : 7
EDGE_WEIGHT_TYPE : EXPLICIT
NODE_COORD_SECTION
0 12 10 0 0 0 12
12 0 8 12 0 0 0
10 8 0 11 3 0 9
0 12 11 0 11 10 0
0 0 3 11 0 6 7
0 0 0 10 6 0 9
12 0 9 0 7 9 0
EOF

